c preprocessed version of dimacs_inithx.i.3-pp, 118 vertices, 1751 edges
p td 118 1751
1 0
0 50
0 51
0 48
2 0
49 0
52 0
54 0
58 0
24 0
34 0
2 1
49 1
52 1
54 1
1 50
1 51
1 3
1 5
1 7
1 48
1 66
1 64
1 55
1 57
2 3
2 5
2 7
2 48
2 50
2 51
2 49
2 52
2 54
2 6
2 59
2 61
2 63
2 62
2 60
2 53
31 2
4 3
6 3
49 3
52 3
59 3
61 3
63 3
62 3
60 3
54 3
53 3
58 3
47 3
31 3
4 5
4 7
4 48
4 6
4 59
4 61
4 63
4 62
4 60
4 53
58 4
47 4
44 4
46 4
31 4
6 5
8 5
12 5
13 5
14 5
15 5
24 5
34 5
47 5
49 5
5 48
5 7
52 5
59 5
61 5
63 5
62 5
60 5
54 5
58 5
31 5
6 7
6 48
6 65
6 67
6 66
6 64
6 55
6 57
6 59
6 61
6 63
6 62
6 60
6 53
58 6
47 6
46 6
31 6
8 7
11 7
12 7
13 7
14 7
15 7
24 7
34 7
47 7
7 48
49 7
52 7
59 7
61 7
63 7
62 7
60 7
54 7
58 7
31 7
9 8
10 8
11 8
8 12
8 13
8 14
8 15
8 16
8 17
8 18
8 19
8 20
8 21
8 22
8 23
8 25
8 33
8 35
8 41
8 42
8 93
8 68
8 69
8 71
8 70
8 74
8 75
8 73
8 76
8 72
8 82
8 80
8 78
8 77
8 45
8 43
8 38
8 56
8 65
8 67
8 66
8 64
8 55
8 57
8 28
8 30
8 86
8 85
8 84
8 83
8 92
8 87
8 48
40 8
39 8
36 8
37 8
26 8
32 8
27 8
107 8
108 8
88 8
81 8
29 8
89 8
90 8
31 8
91 8
9 10
9 11
9 12
9 13
9 14
9 15
9 16
9 17
9 18
9 19
9 20
9 21
9 22
9 23
9 25
9 33
9 35
9 41
9 42
9 98
9 100
9 102
9 104
9 103
9 94
9 93
9 68
9 69
9 71
9 70
9 74
9 75
9 73
9 76
9 72
9 82
9 80
9 78
9 77
9 45
9 43
9 38
9 56
9 65
9 67
9 66
9 64
9 55
9 57
9 28
9 30
9 86
9 85
9 84
9 83
9 92
9 87
40 9
39 9
36 9
37 9
26 9
32 9
27 9
107 9
108 9
88 9
81 9
29 9
89 9
90 9
31 9
91 9
10 11
10 12
10 13
10 14
10 15
10 16
10 17
10 18
10 19
10 20
10 21
10 22
10 23
10 25
10 33
10 35
10 41
10 42
10 98
10 100
10 102
10 104
10 103
10 94
10 93
10 68
10 69
10 71
10 70
10 74
10 75
10 73
10 76
10 72
10 82
10 80
10 78
10 77
10 45
10 43
10 38
10 56
10 65
10 67
10 66
10 64
10 55
10 57
10 28
10 30
10 86
10 85
10 84
10 83
10 92
10 87
10 48
40 10
39 10
36 10
37 10
26 10
32 10
27 10
107 10
108 10
88 10
81 10
29 10
89 10
90 10
31 10
91 10
11 12
11 13
11 14
11 15
11 16
11 17
11 18
11 19
11 20
11 21
11 22
11 23
11 25
11 33
11 35
11 41
11 42
11 102
11 104
11 103
11 94
11 93
11 68
11 69
11 71
11 70
11 74
11 75
11 73
11 76
11 72
11 82
11 80
11 78
11 77
11 45
11 43
11 38
11 56
11 65
11 67
11 66
11 64
11 55
11 57
11 28
11 30
11 86
11 85
11 84
11 83
11 92
11 87
11 48
40 11
39 11
36 11
37 11
26 11
32 11
27 11
107 11
108 11
88 11
81 11
29 11
89 11
90 11
31 11
91 11
12 13
12 14
12 15
12 16
12 17
12 18
12 19
12 20
12 21
12 22
12 23
12 25
12 33
12 35
12 41
12 42
12 93
12 68
12 69
12 71
12 70
12 74
12 75
12 73
12 76
12 72
12 82
12 80
12 78
12 77
12 45
12 43
12 38
12 56
12 65
12 67
12 66
12 64
12 55
12 57
12 28
12 30
12 86
12 85
12 84
12 83
12 92
12 87
12 48
40 12
39 12
36 12
37 12
26 12
32 12
27 12
107 12
108 12
88 12
81 12
29 12
89 12
90 12
31 12
91 12
13 14
13 15
13 16
13 17
13 18
13 19
13 20
13 21
13 22
13 23
13 25
13 33
13 35
13 41
13 42
13 68
13 69
13 71
13 70
13 74
13 75
13 73
13 76
13 72
13 82
13 80
13 78
13 77
13 45
13 43
13 38
13 56
13 65
13 67
13 66
13 64
13 55
13 57
13 28
13 30
13 86
13 85
13 84
13 83
13 92
13 87
13 48
40 13
39 13
36 13
37 13
26 13
32 13
27 13
107 13
108 13
88 13
81 13
29 13
89 13
90 13
31 13
91 13
14 15
14 16
14 17
14 18
14 19
14 20
14 21
14 22
14 23
14 25
14 33
14 35
14 41
14 42
14 68
14 69
14 71
14 70
14 74
14 75
14 73
14 76
14 72
14 82
14 80
14 78
14 77
14 45
14 43
14 38
14 56
14 65
14 67
14 66
14 64
14 55
14 57
14 28
14 30
14 86
14 85
14 84
14 83
14 92
14 87
14 48
40 14
39 14
36 14
37 14
26 14
32 14
27 14
88 14
81 14
29 14
89 14
90 14
31 14
91 14
15 16
15 17
15 18
15 19
15 20
15 21
15 22
15 23
15 25
15 33
15 35
15 41
15 42
15 68
15 69
15 71
15 70
15 74
15 75
15 73
15 76
15 72
15 82
15 80
15 78
15 77
15 45
15 43
15 38
15 56
15 65
15 67
15 66
15 64
15 55
15 57
15 28
15 30
15 86
15 85
15 84
15 83
15 92
15 87
15 48
40 15
39 15
36 15
37 15
26 15
32 15
27 15
88 15
81 15
29 15
89 15
90 15
31 15
91 15
16 17
16 18
16 19
16 20
16 21
16 22
16 23
16 25
16 33
16 35
16 41
16 42
16 70
16 74
16 75
16 73
16 76
16 72
16 82
16 80
16 78
16 77
16 45
16 43
16 38
16 56
16 65
16 67
16 66
16 64
16 55
16 57
16 28
16 30
16 86
16 85
16 84
16 83
16 92
16 87
40 16
39 16
36 16
37 16
26 16
32 16
27 16
88 16
81 16
29 16
89 16
90 16
31 16
91 16
17 18
17 19
17 20
17 21
17 22
17 23
17 25
17 33
17 35
17 41
17 42
17 82
17 80
17 78
17 77
17 45
17 43
17 38
17 56
17 65
17 67
17 66
17 64
17 55
17 57
17 28
17 30
17 86
17 85
17 84
17 83
17 92
17 87
40 17
39 17
36 17
37 17
26 17
32 17
27 17
88 17
81 17
29 17
89 17
90 17
31 17
91 17
18 19
18 20
18 21
18 22
18 23
18 25
18 33
18 35
18 41
18 42
18 78
18 77
18 45
18 43
18 38
18 56
18 65
18 67
18 66
18 64
18 55
18 57
18 28
18 30
18 86
18 85
18 84
18 83
18 92
18 87
40 18
39 18
36 18
37 18
26 18
32 18
27 18
88 18
29 18
89 18
90 18
31 18
91 18
19 20
19 21
19 22
19 23
19 25
19 33
19 35
19 41
19 42
19 45
19 43
19 38
19 56
19 65
19 67
19 66
19 64
19 55
19 57
19 28
19 30
19 86
19 85
19 84
19 83
19 92
19 87
40 19
39 19
36 19
37 19
26 19
32 19
27 19
88 19
29 19
89 19
90 19
31 19
91 19
20 21
20 22
20 23
20 25
20 33
20 35
20 41
20 42
20 45
20 43
20 38
20 56
20 65
20 67
20 66
20 64
20 55
20 57
20 28
20 30
20 86
20 85
20 84
20 83
20 92
20 87
40 20
39 20
36 20
37 20
26 20
32 20
27 20
88 20
29 20
89 20
90 20
31 20
91 20
21 22
21 23
21 25
21 33
21 35
21 41
21 42
21 43
21 38
21 56
21 65
21 67
21 66
21 64
21 55
21 57
21 28
21 30
21 86
21 85
21 84
21 83
21 92
21 87
40 21
39 21
36 21
37 21
26 21
32 21
27 21
88 21
29 21
89 21
90 21
31 21
91 21
22 23
24 22
34 22
29 22
31 22
24 23
34 23
29 23
31 23
24 25
24 28
24 30
24 33
24 35
24 38
24 41
24 42
24 43
24 68
24 69
24 70
24 71
24 72
24 73
24 74
24 75
24 76
24 77
24 78
24 80
24 82
24 45
24 83
24 84
24 85
24 86
24 87
24 92
24 93
24 94
24 98
24 100
24 102
24 103
24 104
24 50
24 51
24 48
24 55
24 56
24 57
24 65
24 64
24 67
24 66
24 34
40 24
39 24
36 24
37 24
26 24
32 24
27 24
107 24
108 24
88 24
81 24
89 24
90 24
91 24
26 25
32 25
27 25
29 25
31 25
26 27
26 32
29 26
31 26
27 28
27 30
32 27
29 27
31 27
29 28
31 28
29 30
29 32
29 33
29 35
29 36
29 37
29 38
29 39
29 40
29 41
29 42
29 43
29 45
29 55
29 56
29 57
29 64
29 65
29 66
29 67
29 68
29 69
29 70
29 71
29 72
29 73
29 74
29 75
29 76
29 77
29 78
29 80
29 81
29 82
29 83
29 84
29 85
29 86
29 87
29 88
29 92
29 93
29 94
29 96
29 98
29 100
29 102
29 103
29 104
29 107
29 108
29 90
29 89
29 91
29 31
31 30
31 32
31 33
31 35
31 36
31 37
31 38
31 39
31 40
31 41
31 42
31 43
31 44
31 45
31 46
31 47
31 48
31 53
31 55
31 56
31 57
31 58
31 59
31 60
31 61
31 62
31 63
31 64
31 65
31 66
31 67
31 68
31 69
31 70
31 71
31 72
31 73
31 74
31 75
31 76
31 77
31 78
31 79
31 80
31 81
31 82
31 83
31 84
31 85
31 86
31 87
31 88
31 92
31 93
31 94
31 95
31 96
31 97
31 98
31 100
31 102
31 103
31 104
31 106
31 107
31 108
89 31
90 31
31 91
34 33
34 35
34 41
34 42
34 43
34 45
34 83
34 84
34 85
34 86
34 87
34 92
34 50
34 51
34 48
88 34
89 34
90 34
91 34
36 35
39 35
36 37
37 38
40 39
41 42
44 43
46 43
44 45
44 83
44 84
44 85
44 86
44 87
44 88
44 92
44 47
44 68
44 69
44 70
44 71
44 72
44 73
44 74
44 75
44 76
44 77
44 78
44 80
44 81
44 82
44 93
44 94
44 95
44 96
44 97
44 98
44 99
44 100
44 101
44 102
44 103
44 104
44 106
44 107
44 108
46 44
89 44
90 44
91 44
46 45
46 47
46 68
46 69
46 70
46 71
46 72
46 73
46 74
46 75
46 76
46 77
46 78
46 79
46 80
46 81
46 82
47 48
47 53
47 59
47 60
47 61
47 62
47 63
58 47
49 48
52 48
59 48
61 48
63 48
62 48
60 48
54 48
58 48
49 50
49 51
49 57
49 52
49 54
49 59
49 61
49 63
49 62
49 60
49 53
50 51
52 50
54 50
58 50
52 51
54 51
58 51
52 53
52 55
52 57
52 54
52 59
52 61
52 63
52 62
52 60
54 53
59 53
61 53
63 53
62 53
60 53
58 53
54 55
54 57
54 64
56 55
65 55
67 55
66 55
64 55
55 57
58 55
56 57
56 64
56 66
56 67
56 65
58 57
65 57
67 57
66 57
64 57
58 59
58 60
58 64
58 67
58 66
58 61
58 62
58 63
59 60
59 62
59 63
59 61
61 60
63 60
62 60
61 62
61 63
63 62
65 64
67 64
66 64
65 66
65 67
67 66
68 69
69 70
69 71
69 72
69 76
69 73
69 75
69 74
69 77
69 78
69 80
69 82
79 69
81 69
71 70
70 72
70 76
70 73
70 75
70 74
70 77
70 78
70 80
70 82
79 70
81 70
73 72
76 72
72 80
81 72
74 73
75 73
73 76
73 77
73 78
73 80
79 73
81 73
74 75
75 76
76 77
76 78
76 80
79 76
81 76
78 77
79 77
79 78
84 83
83 87
88 83
85 84
84 87
88 84
89 84
90 84
91 84
86 85
89 90
89 91
90 91
95 94
99 94
102 94
104 94
103 94
101 94
105 94
95 96
95 98
95 100
95 102
95 104
95 103
99 95
101 95
105 95
95 97
95 106
97 96
96 100
96 98
99 96
101 96
97 98
97 100
97 102
97 104
97 103
99 97
101 97
106 97
99 98
101 98
99 100
99 102
99 104
99 103
99 101
99 106
99 105
101 100
101 102
101 104
101 103
101 106
101 105
102 103
102 104
105 102
104 103
105 103
105 104
107 108
109 110
109 111
109 107
109 108
109 116
109 0
109 1
109 2
109 3
109 4
109 5
109 6
109 7
109 114
109 112
109 113
109 22
109 23
109 24
109 25
109 26
109 27
109 28
109 29
109 38
109 37
109 36
109 35
109 34
109 33
109 41
109 42
109 43
109 44
109 68
109 69
109 70
109 71
109 72
109 73
109 74
109 75
109 76
109 77
109 78
109 79
109 81
109 80
109 82
109 45
109 47
109 48
109 49
109 50
109 51
109 52
109 55
109 54
109 53
109 59
109 60
109 58
109 57
109 56
109 64
109 65
109 66
109 67
109 61
109 62
109 63
109 83
109 84
109 85
109 86
109 90
109 89
109 91
109 88
109 87
109 92
109 93
109 94
109 95
109 96
109 97
109 98
109 99
109 100
109 101
109 102
109 103
109 104
109 105
109 106
109 115
109 117
109 39
109 40
109 30
109 32
109 31
109 46
110 4
110 6
110 114
110 112
110 113
110 29
110 31
110 38
110 43
110 46
110 68
110 69
110 70
110 71
110 72
110 73
110 74
110 75
110 76
110 77
110 78
110 79
110 80
110 82
110 45
110 47
110 83
110 84
110 85
110 86
110 90
110 89
110 91
110 87
110 88
110 92
110 115
110 117
110 93
110 94
110 96
110 98
110 99
110 100
110 101
110 102
110 103
110 104
110 105
110 107
110 108
110 111
110 81
110 116
110 44
111 29
111 4
111 6
111 114
111 112
111 113
111 31
111 43
111 46
111 68
111 69
111 70
111 71
111 72
111 73
111 74
111 75
111 76
111 77
111 78
111 79
111 80
111 82
111 45
111 47
111 83
111 84
111 85
111 86
111 90
111 89
111 91
111 87
111 88
111 92
111 115
111 117
111 93
111 94
111 96
111 98
111 99
111 100
111 101
111 102
111 103
111 104
111 105
111 107
111 108
111 81
111 116
111 44
112 114
112 113
112 117
112 115
112 29
112 116
112 31
113 117
113 8
113 114
113 9
113 10
113 11
113 12
113 13
113 14
113 15
113 24
113 115
113 29
113 116
113 31
114 117
114 8
114 9
114 10
114 11
114 12
114 13
114 14
114 15
114 16
114 17
114 115
114 24
114 29
114 116
114 31
115 117
115 8
115 9
115 10
115 11
115 12
115 13
115 14
115 15
115 16
115 17
115 18
115 19
115 20
115 24
115 34
115 29
115 116
115 31
116 117
116 29
116 89
116 90
116 91
116 81
116 88
116 107
116 108
116 31
116 46
116 4
116 43
116 68
116 69
116 70
116 71
116 44
116 72
116 73
116 74
116 75
116 76
116 77
116 78
116 79
116 80
116 82
116 45
116 47
116 83
116 84
116 85
116 86
116 87
116 92
116 93
116 94
116 95
116 96
116 97
116 98
116 99
116 100
116 101
116 102
116 103
116 104
116 105
116 106
117 9
117 10
117 11
117 24
117 29
117 31
